decision_x1=[0,2];
decision_x2=[0,2];
decision_x3=[0,2];
decision_x4=[0,2];
decision_x5=[0,2];
decision_x6=[0,2];
decision_x7=[0,2];
decision_x8=[0,2];
decision_x9=[0,2];
decision_x10=[0,2];
decision_x11=[0,2];
decision_x12=[0,2];
random_y1=[0,2];
random_y2=[0,2];
random_y3=[0,2];
random_y4=[0,2];
random_y5=[0,2];
random_y6=[0,2];
random_y7=[0,2];
random_y8=[0,2];
random_y9=[0,2];
random_y10=[0,2];
random_y11=[0,2];
random_y12=[0,2];
constraint_x3_x1=[
0,0,67|
0,1,9.6|
0,2,80|
1,0,66|
1,1,54|
1,2,40|
2,0,33|
2,1,66|
2,2,73|
];
constraint_x3_x2=[
0,0,64|
0,1,22|
0,2,18|
1,0,16|
1,1,61|
1,2,86|
2,0,15|
2,1,94|
2,2,49|
];
constraint_x4_x1=[
0,0,21|
0,1,14|
0,2,57|
1,0,81|
1,1,76|
1,2,7.3|
2,0,93|
2,1,73|
2,2,58|
];
constraint_x4_x2=[
0,0,33|
0,1,98|
0,2,7.3|
1,0,86|
1,1,90|
1,2,50|
2,0,94|
2,1,28|
2,2,98|
];
constraint_x5_x1=[
0,0,87|
0,1,25|
0,2,91|
1,0,1|
1,1,6.2|
1,2,35|
2,0,48|
2,1,87|
2,2,90|
];
constraint_x5_x3=[
0,0,62|
0,1,26|
0,2,38|
1,0,81|
1,1,39|
1,2,96|
2,0,1.5|
2,1,9.2|
2,2,70|
];
constraint_x6_x5=[
0,0,31|
0,1,9.4|
0,2,53|
1,0,29|
1,1,58|
1,2,58|
2,0,87|
2,1,79|
2,2,29|
];
constraint_x7_x1=[
0,0,90|
0,1,47|
0,2,85|
1,0,9.3|
1,1,80|
1,2,25|
2,0,29|
2,1,33|
2,2,71|
];
constraint_x7_x3=[
0,0,85|
0,1,89|
0,2,78|
1,0,49|
1,1,13|
1,2,83|
2,0,31|
2,1,41|
2,2,88|
];
constraint_x7_x4=[
0,0,71|
0,1,16|
0,2,60|
1,0,61|
1,1,24|
1,2,67|
2,0,38|
2,1,95|
2,2,35|
];
constraint_x7_x5=[
0,0,32|
0,1,22|
0,2,98|
1,0,31|
1,1,53|
1,2,48|
2,0,29|
2,1,94|
2,2,0.25|
];
constraint_x8_x2=[
0,0,48|
0,1,3.3|
0,2,88|
1,0,46|
1,1,75|
1,2,79|
2,0,23|
2,1,42|
2,2,25|
];
constraint_x8_x3=[
0,0,4.2|
0,1,91|
0,2,56|
1,0,56|
1,1,85|
1,2,52|
2,0,23|
2,1,17|
2,2,45|
];
constraint_x8_x4=[
0,0,92|
0,1,63|
0,2,74|
1,0,30|
1,1,58|
1,2,54|
2,0,9.5|
2,1,56|
2,2,65|
];
constraint_x8_x7=[
0,0,34|
0,1,28|
0,2,16|
1,0,90|
1,1,43|
1,2,39|
2,0,93|
2,1,66|
2,2,28|
];
constraint_x9_x1=[
0,0,47|
0,1,86|
0,2,35|
1,0,97|
1,1,37|
1,2,17|
2,0,14|
2,1,96|
2,2,25|
];
constraint_x9_x3=[
0,0,96|
0,1,31|
0,2,38|
1,0,28|
1,1,7.8|
1,2,17|
2,0,92|
2,1,96|
2,2,4.4|
];
constraint_x9_x4=[
0,0,61|
0,1,91|
0,2,59|
1,0,82|
1,1,2.6|
1,2,27|
2,0,56|
2,1,7|
2,2,16|
];
constraint_x9_x6=[
0,0,0.17|
0,1,20|
0,2,38|
1,0,38|
1,1,0.0038|
1,2,95|
2,0,98|
2,1,93|
2,2,21|
];
constraint_x9_x8=[
0,0,28|
0,1,97|
0,2,7.6|
1,0,93|
1,1,20|
1,2,13|
2,0,56|
2,1,15|
2,2,82|
];
constraint_x10_x2=[
0,0,56|
0,1,93|
0,2,37|
1,0,94|
1,1,19|
1,2,3.5|
2,0,0.83|
2,1,80|
2,2,84|
];
constraint_x10_x3=[
0,0,36|
0,1,54|
0,2,36|
1,0,2.4|
1,1,1.8|
1,2,27|
2,0,28|
2,1,26|
2,2,27|
];
constraint_x10_x5=[
0,0,61|
0,1,28|
0,2,92|
1,0,0.35|
1,1,98|
1,2,5|
2,0,37|
2,1,18|
2,2,32|
];
constraint_x10_x7=[
0,0,97|
0,1,34|
0,2,87|
1,0,50|
1,1,87|
1,2,33|
2,0,65|
2,1,33|
2,2,31|
];
constraint_x11_x2=[
0,0,31|
0,1,2.6|
0,2,1.4|
1,0,9.9|
1,1,29|
1,2,66|
2,0,65|
2,1,65|
2,2,70|
];
constraint_x11_x3=[
0,0,23|
0,1,53|
0,2,94|
1,0,12|
1,1,63|
1,2,71|
2,0,25|
2,1,38|
2,2,50|
];
constraint_x11_x4=[
0,0,61|
0,1,66|
0,2,95|
1,0,84|
1,1,80|
1,2,74|
2,0,85|
2,1,19|
2,2,1e+02|
];
constraint_x11_x6=[
0,0,63|
0,1,88|
0,2,96|
1,0,65|
1,1,82|
1,2,39|
2,0,36|
2,1,28|
2,2,89|
];
constraint_x11_x7=[
0,0,31|
0,1,30|
0,2,13|
1,0,80|
1,1,72|
1,2,22|
2,0,48|
2,1,47|
2,2,69|
];
constraint_x11_x9=[
0,0,27|
0,1,54|
0,2,0.35|
1,0,93|
1,1,3.1|
1,2,78|
2,0,93|
2,1,14|
2,2,43|
];
constraint_x12_x1=[
0,0,79|
0,1,19|
0,2,9.1|
1,0,79|
1,1,30|
1,2,94|
2,0,27|
2,1,78|
2,2,90|
];
constraint_x12_x9=[
0,0,62|
0,1,99|
0,2,12|
1,0,64|
1,1,44|
1,2,20|
2,0,61|
2,1,84|
2,2,40|
];
constraint_x12_x10=[
0,0,14|
0,1,57|
0,2,33|
1,0,29|
1,1,23|
1,2,6|
2,0,63|
2,1,92|
2,2,82|
];
constraint_x1_y1=[
0,0,75|
0,1,39|
0,2,77|
1,0,38|
1,1,42|
1,2,14|
2,0,48|
2,1,56|
2,2,28|
];
constraint_x2_y2=[
0,0,98|
0,1,25|
0,2,58|
1,0,7.7|
1,1,49|
1,2,3.1|
2,0,18|
2,1,85|
2,2,38|
];
constraint_x3_y3=[
0,0,87|
0,1,37|
0,2,7.6|
1,0,16|
1,1,74|
1,2,28|
2,0,81|
2,1,48|
2,2,50|
];
constraint_x4_y4=[
0,0,8.7|
0,1,59|
0,2,64|
1,0,27|
1,1,48|
1,2,76|
2,0,16|
2,1,34|
2,2,71|
];
constraint_x5_y5=[
0,0,85|
0,1,34|
0,2,38|
1,0,91|
1,1,60|
1,2,33|
2,0,26|
2,1,49|
2,2,46|
];
constraint_x6_y6=[
0,0,68|
0,1,36|
0,2,92|
1,0,23|
1,1,73|
1,2,32|
2,0,59|
2,1,99|
2,2,97|
];
constraint_x7_y7=[
0,0,18|
0,1,3.9|
0,2,45|
1,0,20|
1,1,69|
1,2,93|
2,0,18|
2,1,78|
2,2,16|
];
constraint_x8_y8=[
0,0,64|
0,1,85|
0,2,84|
1,0,72|
1,1,99|
1,2,68|
2,0,5.3|
2,1,20|
2,2,39|
];
constraint_x9_y9=[
0,0,22|
0,1,65|
0,2,91|
1,0,38|
1,1,83|
1,2,47|
2,0,36|
2,1,38|
2,2,75|
];
constraint_x10_y10=[
0,0,79|
0,1,76|
0,2,68|
1,0,85|
1,1,19|
1,2,14|
2,0,27|
2,1,0.78|
2,2,40|
];
constraint_x11_y11=[
0,0,19|
0,1,42|
0,2,39|
1,0,84|
1,1,95|
1,2,40|
2,0,28|
2,1,54|
2,2,27|
];
constraint_x12_y12=[
0,0,0.56|
0,1,81|
0,2,10|
1,0,1.5|
1,1,30|
1,2,68|
2,0,82|
2,1,23|
2,2,17|
];
initial_distribution_y1=[0.29,0.34,0.38];
initial_distribution_y2=[0.44,0.49,0.079];
initial_distribution_y3=[0.35,0.26,0.39];
initial_distribution_y4=[0.47,0.05,0.48];
initial_distribution_y5=[0.21,0.48,0.32];
initial_distribution_y6=[0.44,0.26,0.3];
initial_distribution_y7=[0.35,0.28,0.37];
initial_distribution_y8=[0.45,0.091,0.45];
initial_distribution_y9=[0.25,0.4,0.35];
initial_distribution_y10=[0.61,0.29,0.1];
initial_distribution_y11=[0.14,0.34,0.53];
initial_distribution_y12=[0.31,0.44,0.25];
transition_y1=[
0.35,0.26,0.39|
0.17,0.36,0.47|
0.31,0.49,0.2|
];
transition_y2=[
0.39,0.45,0.16|
0.14,0.54,0.32|
0.67,0.049,0.28|
];
transition_y3=[
0.36,0.21,0.43|
0.29,0.46,0.25|
0.48,0.1,0.42|
];
transition_y4=[
0.17,0.36,0.46|
0.42,0.28,0.3|
0.14,0.37,0.49|
];
transition_y5=[
0.32,0.3,0.39|
0.49,0.018,0.49|
0.56,0.064,0.37|
];
transition_y6=[
0.39,0.22,0.39|
0.5,0.48,0.014|
0.29,0.024,0.69|
];
transition_y7=[
0.3,0.61,0.087|
0.16,0.21,0.63|
0.36,0.63,0.0088|
];
transition_y8=[
0.48,0.49,0.034|
0.24,0.16,0.6|
0.31,0.45,0.24|
];
transition_y9=[
0.17,0.5,0.33|
0.2,0.34,0.46|
0.32,0.33,0.35|
];
transition_y10=[
0.4,0.11,0.49|
0.28,0.38,0.34|
0.23,0.38,0.39|
];
transition_y11=[
0.27,0.37,0.36|
0.45,0.37,0.18|
0.41,0.2,0.39|
];
transition_y12=[
0.16,0.45,0.39|
0.43,0.26,0.32|
0.48,0.1,0.42|
];
